55918878010700523825010,8,1,2,013,3,1,2,08,10,1,2,010,15,1,2,06,14,1,2,08,9,1,2,08,6,1,2,010,13,1,2,011,5,1,2,011,13,1,2,02,3,1,2,03,15,1,2,04,14,1,2,010,6,1,2,07,12,1,2,04,7,1,2,010,14,1,2,09,2,1,2,010,2,1,2,010,8,1,2,010,14,1,2,06,15,1,2,07,8,1,2,09,14,1,2,014,14,1,2,04,1,1,2,03,8,1,2,09,5,1,2,015,5,1,2,015,6,1,2,07,10,1,2,01,8,1,2,010,1,1,2,014,12,1,2,04,4,1,2,08,3,1,2,010,9,1,2,012,2,1,2,015,6,1,2,05,3,1,2,09,2,1,2,05,8,1,2,013,8,1,2,015,4,1,2,05,11,1,2,02,13,1,2,04,5,1,2,014,12,1,2,011,12,1,2,015,2,1,2,0